# Solution for model micodag
# Objective value = 1.7317183779253497e+01
s_0_1 0
s_1_0 0
s_0_2 0
s_2_0 3.4538407154972095e-01
s_1_4 0
s_4_1 3.7436758300447348e-01
s_2_3 0
s_3_2 6.1138801791636874e+00
s_2_4 0
s_4_2 0
s_2_5 0
s_5_2 6.1138801791636874e+00
s_4_5 0
s_5_4 4.8216825291404053e-01
s_4_12 0
s_12_4 2.1037140217657502e-01
s_4_13 0
s_13_4 0.669417472844323
s_5_6 0
s_6_5 3.9093510330970549e-01
s_6_7 0
s_7_6 6.1765034618864778e-01
s_6_8 0
s_8_6 1.3804989072843243e+00
s_6_10 0
s_10_6 1.4029936439243595e-01
s_6_11 0
s_11_6 6.4827850175786583e-01
s_6_14 0
s_14_6 0.682125289482757
s_7_8 0
s_8_7 1.1601966092906011e+00
s_7_9 0
s_9_7 0
s_8_9 0
s_9_8 8.9358057191317286e-02
s_9_10 1.0934836736226181e+00
s_10_9 0
s_10_11 0
s_11_10 3.4657708932917419e-01
s_14_15 0
s_15_14 2.9969538446336141e-01
s_0_0 6.9912324302571438e-01
s_1_1 1.8645925484206138e+00
s_2_2 6.1138801791636874e+00
s_3_3 6.7904267716256150e-01
s_4_4 6.5029916209055560e-01
s_5_5 7.0732878933754151e-01
s_6_6 6.2447353830444019e-01
s_7_7 0.96841758442147
s_8_8 1.9651458618371489e+00
s_9_9 1.6438790767796814e+00
s_10_10 1.05158127060138
s_11_11 0.970679723184567
s_12_12 6.1188108939630936e-01
s_13_13 1.0316770049276780e+00
s_14_14 2.0290933348323552e+00
s_15_15 9.2349560382926477e-01
Gamma_0_0 8.3613589985463188e-01
Gamma_0_1 0
Gamma_0_2 0
Gamma_0_3 0
Gamma_0_4 0
Gamma_0_5 0
Gamma_0_6 0
Gamma_0_7 0
Gamma_0_8 0
Gamma_0_9 0
Gamma_0_10 0
Gamma_0_11 0
Gamma_0_12 0
Gamma_0_13 0
Gamma_0_14 0
Gamma_0_15 0
Gamma_1_0 0
Gamma_1_1 1.3655008416037737e+00
Gamma_1_2 0
Gamma_1_3 0
Gamma_1_4 0
Gamma_1_5 0
Gamma_1_6 0
Gamma_1_7 0
Gamma_1_8 0
Gamma_1_9 0
Gamma_1_10 0
Gamma_1_11 0
Gamma_1_12 0
Gamma_1_13 0
Gamma_1_14 0
Gamma_1_15 0
Gamma_2_0 5.8769385869661928e-01
Gamma_2_1 0
Gamma_2_2 9.6405508065870782e-01
Gamma_2_3 0
Gamma_2_4 0
Gamma_2_5 0
Gamma_2_6 0
Gamma_2_7 0
Gamma_2_8 0
Gamma_2_9 0
Gamma_2_10 0
Gamma_2_11 0
Gamma_2_12 0
Gamma_2_13 0
Gamma_2_14 0
Gamma_2_15 0
Gamma_3_0 0
Gamma_3_1 0
Gamma_3_2 5.5385868885893963e-01
Gamma_3_3 8.2404045845004614e-01
Gamma_3_4 0
Gamma_3_5 0
Gamma_3_6 0
Gamma_3_7 0
Gamma_3_8 0
Gamma_3_9 0
Gamma_3_10 0
Gamma_3_11 0
Gamma_3_12 0
Gamma_3_13 0
Gamma_3_14 0
Gamma_3_15 0
Gamma_4_0 0
Gamma_4_1 6.1185585149156985e-01
Gamma_4_2 0
Gamma_4_3 0
Gamma_4_4 8.0641128593947442e-01
Gamma_4_5 0
Gamma_4_6 0
Gamma_4_7 0
Gamma_4_8 0
Gamma_4_9 0
Gamma_4_10 0
Gamma_4_11 0
Gamma_4_12 0
Gamma_4_13 0
Gamma_4_14 0
Gamma_4_15 0
Gamma_5_0 0
Gamma_5_1 0
Gamma_5_2 6.3663723445213150e-01
Gamma_5_3 0
Gamma_5_4 6.9438336163393310e-01
Gamma_5_5 8.4102841173027054e-01
Gamma_5_6 0
Gamma_5_7 0
Gamma_5_8 0
Gamma_5_9 0
Gamma_5_10 0
Gamma_5_11 0
Gamma_5_12 0
Gamma_5_13 0
Gamma_5_14 0
Gamma_5_15 0
Gamma_6_0 0
Gamma_6_1 0
Gamma_6_2 0
Gamma_6_3 0
Gamma_6_4 0
Gamma_6_5 -6.2524803343129864e-01
Gamma_6_6 7.9023638128375306e-01
Gamma_6_7 0
Gamma_6_8 0
Gamma_6_9 0
Gamma_6_10 0
Gamma_6_11 0
Gamma_6_12 0
Gamma_6_13 0
Gamma_6_14 0
Gamma_6_15 0
Gamma_7_0 0
Gamma_7_1 0
Gamma_7_2 0
Gamma_7_3 0
Gamma_7_4 0
Gamma_7_5 0
Gamma_7_6 7.8590733944190128e-01
Gamma_7_7 9.8408210248000716e-01
Gamma_7_8 0
Gamma_7_9 0
Gamma_7_10 0
Gamma_7_11 0
Gamma_7_12 0
Gamma_7_13 0
Gamma_7_14 0
Gamma_7_15 0
Gamma_8_0 0
Gamma_8_1 0
Gamma_8_2 0
Gamma_8_3 0
Gamma_8_4 0
Gamma_8_5 0
Gamma_8_6 -1.1749463423000752e+00
Gamma_8_7 1.0771242311314895e+00
Gamma_8_8 1.4018366031164791e+00
Gamma_8_9 0
Gamma_8_10 0
Gamma_8_11 0
Gamma_8_12 0
Gamma_8_13 0
Gamma_8_14 0
Gamma_8_15 0
Gamma_9_0 0
Gamma_9_1 0
Gamma_9_2 0
Gamma_9_3 0
Gamma_9_4 0
Gamma_9_5 0
Gamma_9_6 0
Gamma_9_7 0
Gamma_9_8 2.9892818065769489e-01
Gamma_9_9 1.2821384780044949e+00
Gamma_9_10 -1.0456976970533212e+00
Gamma_9_11 0
Gamma_9_12 0
Gamma_9_13 0
Gamma_9_14 0
Gamma_9_15 0
Gamma_10_0 0
Gamma_10_1 0
Gamma_10_2 0
Gamma_10_3 0
Gamma_10_4 0
Gamma_10_5 0
Gamma_10_6 3.7456556754784215e-01
Gamma_10_7 0
Gamma_10_8 0
Gamma_10_9 0
Gamma_10_10 1.0254663673672488e+00
Gamma_10_11 0
Gamma_10_12 0
Gamma_10_13 0
Gamma_10_14 0
Gamma_10_15 0
Gamma_11_0 0
Gamma_11_1 0
Gamma_11_2 0
Gamma_11_3 0
Gamma_11_4 0
Gamma_11_5 0
Gamma_11_6 -8.0515743911229343e-01
Gamma_11_7 0
Gamma_11_8 0
Gamma_11_9 0
Gamma_11_10 -5.8870798306900451e-01
Gamma_11_11 9.8523079691236215e-01
Gamma_11_12 0
Gamma_11_13 0
Gamma_11_14 0
Gamma_11_15 0
Gamma_12_0 0
Gamma_12_1 0
Gamma_12_2 0
Gamma_12_3 0
Gamma_12_4 -4.5866262347893105e-01
Gamma_12_5 0
Gamma_12_6 0
Gamma_12_7 0
Gamma_12_8 0
Gamma_12_9 0
Gamma_12_10 0
Gamma_12_11 0
Gamma_12_12 7.8222828470741845e-01
Gamma_12_13 0
Gamma_12_14 0
Gamma_12_15 0
Gamma_13_0 0
Gamma_13_1 0
Gamma_13_2 0
Gamma_13_3 0
Gamma_13_4 -8.1817936471431674e-01
Gamma_13_5 0
Gamma_13_6 0
Gamma_13_7 0
Gamma_13_8 0
Gamma_13_9 0
Gamma_13_10 0
Gamma_13_11 0
Gamma_13_12 0
Gamma_13_13 1.0157150215132582e+00
Gamma_13_14 0
Gamma_13_15 0
Gamma_14_0 0
Gamma_14_1 0
Gamma_14_2 0
Gamma_14_3 0
Gamma_14_4 0
Gamma_14_5 0
Gamma_14_6 -8.2590876583479711e-01
Gamma_14_7 0
Gamma_14_8 0
Gamma_14_9 0
Gamma_14_10 0
Gamma_14_11 0
Gamma_14_12 0
Gamma_14_13 0
Gamma_14_14 1.4244624722443047e+00
Gamma_14_15 0
Gamma_15_0 0
Gamma_15_1 0
Gamma_15_2 0
Gamma_15_3 0
Gamma_15_4 0
Gamma_15_5 0
Gamma_15_6 0
Gamma_15_7 0
Gamma_15_8 0
Gamma_15_9 0
Gamma_15_10 0
Gamma_15_11 0
Gamma_15_12 0
Gamma_15_13 0
Gamma_15_14 -5.4744441221311468e-01
Gamma_15_15 9.6098678650086822e-01
psi_0 6
psi_1 6
psi_2 5
psi_3 0
psi_4 5
psi_5 4
psi_6 3
psi_7 2
psi_8 1
psi_9 0
psi_10 1
psi_11 0
psi_12 0
psi_13 0
psi_14 1
psi_15 0
g_0_0 0
g_0_1 0
g_0_2 0
g_0_3 0
g_0_4 0
g_0_5 0
g_0_6 0
g_0_7 0
g_0_8 0
g_0_9 0
g_0_10 0
g_0_11 0
g_0_12 0
g_0_13 0
g_0_14 0
g_0_15 0
g_1_0 0
g_1_1 0
g_1_2 0
g_1_3 0
g_1_4 0
g_1_5 0
g_1_6 0
g_1_7 0
g_1_8 0
g_1_9 0
g_1_10 0
g_1_11 0
g_1_12 0
g_1_13 0
g_1_14 0
g_1_15 0
g_2_0 1
g_2_1 0
g_2_2 0
g_2_3 0
g_2_4 0
g_2_5 0
g_2_6 0
g_2_7 0
g_2_8 0
g_2_9 0
g_2_10 0
g_2_11 0
g_2_12 0
g_2_13 0
g_2_14 0
g_2_15 0
g_3_0 0
g_3_1 0
g_3_2 1
g_3_3 0
g_3_4 0
g_3_5 0
g_3_6 0
g_3_7 0
g_3_8 0
g_3_9 0
g_3_10 0
g_3_11 0
g_3_12 0
g_3_13 0
g_3_14 0
g_3_15 0
g_4_0 0
g_4_1 1
g_4_2 0
g_4_3 0
g_4_4 0
g_4_5 0
g_4_6 0
g_4_7 0
g_4_8 0
g_4_9 0
g_4_10 0
g_4_11 0
g_4_12 0
g_4_13 0
g_4_14 0
g_4_15 0
g_5_0 0
g_5_1 0
g_5_2 1
g_5_3 0
g_5_4 1
g_5_5 0
g_5_6 0
g_5_7 0
g_5_8 0
g_5_9 0
g_5_10 0
g_5_11 0
g_5_12 0
g_5_13 0
g_5_14 0
g_5_15 0
g_6_0 0
g_6_1 0
g_6_2 0
g_6_3 0
g_6_4 0
g_6_5 1
g_6_6 0
g_6_7 0
g_6_8 0
g_6_9 0
g_6_10 0
g_6_11 0
g_6_12 0
g_6_13 0
g_6_14 0
g_6_15 0
g_7_0 0
g_7_1 0
g_7_2 0
g_7_3 0
g_7_4 0
g_7_5 0
g_7_6 1
g_7_7 0
g_7_8 0
g_7_9 0
g_7_10 0
g_7_11 0
g_7_12 0
g_7_13 0
g_7_14 0
g_7_15 0
g_8_0 0
g_8_1 0
g_8_2 0
g_8_3 0
g_8_4 0
g_8_5 0
g_8_6 1
g_8_7 1
g_8_8 0
g_8_9 0
g_8_10 0
g_8_11 0
g_8_12 0
g_8_13 0
g_8_14 0
g_8_15 0
g_9_0 0
g_9_1 0
g_9_2 0
g_9_3 0
g_9_4 0
g_9_5 0
g_9_6 0
g_9_7 0
g_9_8 1
g_9_9 0
g_9_10 1
g_9_11 0
g_9_12 0
g_9_13 0
g_9_14 0
g_9_15 0
g_10_0 0
g_10_1 0
g_10_2 0
g_10_3 0
g_10_4 0
g_10_5 0
g_10_6 1
g_10_7 0
g_10_8 0
g_10_9 0
g_10_10 0
g_10_11 0
g_10_12 0
g_10_13 0
g_10_14 0
g_10_15 0
g_11_0 0
g_11_1 0
g_11_2 0
g_11_3 0
g_11_4 0
g_11_5 0
g_11_6 1
g_11_7 0
g_11_8 0
g_11_9 0
g_11_10 1
g_11_11 0
g_11_12 0
g_11_13 0
g_11_14 0
g_11_15 0
g_12_0 0
g_12_1 0
g_12_2 0
g_12_3 0
g_12_4 1
g_12_5 0
g_12_6 0
g_12_7 0
g_12_8 0
g_12_9 0
g_12_10 0
g_12_11 0
g_12_12 0
g_12_13 0
g_12_14 0
g_12_15 0
g_13_0 0
g_13_1 0
g_13_2 0
g_13_3 0
g_13_4 1
g_13_5 0
g_13_6 0
g_13_7 0
g_13_8 0
g_13_9 0
g_13_10 0
g_13_11 0
g_13_12 0
g_13_13 0
g_13_14 0
g_13_15 0
g_14_0 0
g_14_1 0
g_14_2 0
g_14_3 0
g_14_4 0
g_14_5 0
g_14_6 1
g_14_7 0
g_14_8 0
g_14_9 0
g_14_10 0
g_14_11 0
g_14_12 0
g_14_13 0
g_14_14 0
g_14_15 0
g_15_0 0
g_15_1 0
g_15_2 0
g_15_3 0
g_15_4 0
g_15_5 0
g_15_6 0
g_15_7 0
g_15_8 0
g_15_9 0
g_15_10 0
g_15_11 0
g_15_12 0
g_15_13 0
g_15_14 1
g_15_15 0
T_0 3.5792823894819037e-01
T_1 -6.2304255653042162e-01
T_2 7.3213696782232773e-02
T_3 3.8707130043459870e-01
T_4 4.3032277260462592e-01
T_5 3.4625967261918333e-01
T_6 0.470846322925226
T_7 3.2091895861825037e-02
T_8 -6.7556647250889057e-01
T_9 -4.9705873965847047e-01
T_10 -5.0295003332124111e-02
T_11 2.9758707341130730e-02
T_12 4.9121731372022737e-01
T_13 -3.1185638349754186e-02
T_14 -7.0758906019591450e-01
T_15 7.9589239690648128e-02
